\Written from user model (presolvestate=0x680061)
\Problem name: basic_bikes                                                      
\FICO Xpress v9.7.0, Hyper, written 13:31:43, Nov 3, 2025

Maximize
__OBJ___: y_1 + 2 y_2 + y_4 + 2 y_5 + y_7 + 2 y_8 + 0 y_0_0 + 0 y_0_1 + 0 y_0_2
 + 0 y_0_3 + 0 y_0_4 + 0 y_0_5 + 0 y_0_6 + 0 y_0_7 + 0 y_0_8 + 0 y_1_0
 + 0 y_1_1 + 0 y_1_2 + 0 y_1_3 + 0 y_1_4 + 0 y_1_5 + 0 y_1_6 + 0 y_1_7
 + 0 y_1_8 + 0 y_2_0 + 0 y_2_1 + 0 y_2_2 + 0 y_2_3 + 0 y_2_4 + 0 y_2_5
 + 0 y_2_6 + 0 y_2_7 + 0 y_2_8 + 0 y_3_0 + 0 y_3_1 + 0 y_3_2 + 0 y_3_3
 + 0 y_3_4 + 0 y_3_5 + 0 y_3_6 + 0 y_3_7 + 0 y_3_8 + 0 y_4_0 + 0 y_4_1
 + 0 y_4_2 + 0 y_4_3 + 0 y_4_4 + 0 y_4_5 + 0 y_4_6 + 0 y_4_7 + 0 y_4_8
 + 0 y_5_0 + 0 y_5_1 + 0 y_5_2 + 0 y_5_3 + 0 y_5_4 + 0 y_5_5 + 0 y_5_6
 + 0 y_5_7 + 0 y_5_8 + 0 y_6_0 + 0 y_6_1 + 0 y_6_2 + 0 y_6_3 + 0 y_6_4
 + 0 y_6_5 + 0 y_6_6 + 0 y_6_7 + 0 y_6_8 + 0 y_7_0 + 0 y_7_1 + 0 y_7_2
 + 0 y_7_3 + 0 y_7_4 + 0 y_7_5 + 0 y_7_6 + 0 y_7_7 + 0 y_7_8 + 0 y_8_0
 + 0 y_8_1 + 0 y_8_2 + 0 y_8_3 + 0 y_8_4 + 0 y_8_5 + 0 y_8_6 + 0 y_8_7
 + 0 y_8_8 + 0 y_9_9

Subject To
R1: - x_0 + z_0 >= 0 
R2: - x_1 + z_1 >= 0 
R3: - x_2 + z_2 >= 0 
R4: - x_3 + z_3 >= 0 
R5: - x_4 + z_4 >= 0 
R6: - x_5 + z_5 >= 0 
R7: - x_6 + z_6 >= 0 
R8: - x_7 + z_7 >= 0 
R9: - x_8 + z_8 >= 0 
R10: - x_9 + z_9 >= 0 
R11: - x_0 + z_0 <= 0 
R12: - 2 x_1 + z_1 <= 0 
R13: - 3 x_2 + z_2 <= 0 
R14: - 4 x_3 + z_3 <= 0 
R15: - 5 x_4 + z_4 <= 0 
R16: - 6 x_5 + z_5 <= 0 
R17: - 7 x_6 + z_6 <= 0 
R18: - 8 x_7 + z_7 <= 0 
R19: - 9 x_8 + z_8 <= 0 
R20: - 10 x_9 + z_9 <= 0 
R21: - x_0 + y_0 >= 0 
R22: - x_1 + y_1 >= 0 
R23: - x_2 + y_2 >= 0 
R24: - x_3 + y_3 >= 0 
R25: - x_4 + y_4 >= 0 
R26: - x_5 + y_5 >= 0 
R27: - x_6 + y_6 >= 0 
R28: - x_7 + y_7 >= 0 
R29: - x_8 + y_8 >= 0 
R30: - x_9 + y_9 >= 0 
R31: y_0 - z_0 <= 0 
R32: y_1 - z_1 <= 0 
R33: y_2 - z_2 <= 0 
R34: y_3 - z_3 <= 0 
R35: y_4 - z_4 <= 0 
R36: y_5 - z_5 <= 0 
R37: y_6 - z_6 <= 0 
R38: y_7 - z_7 <= 0 
R39: y_8 - z_8 <= 0 
R40: y_9 - z_9 <= 0 
R41: y_9 + y_0_9 + y_1_9 + y_2_9 + y_3_9 + y_4_9 + y_5_9 + y_6_9 + y_7_9
          + y_8_9 - y_9_0 - y_9_1 - y_9_2 - y_9_3 - y_9_4 - y_9_5 - y_9_6
          - y_9_7 - y_9_8 >= 0 
R42: x_0 - e_0 <= 0 
R43: x_1 - e_1 <= 1 
R44: x_2 - e_2 <= 2 
R45: x_3 - e_3 <= 0 
R46: x_4 - e_4 <= 1 
R47: x_5 - e_5 <= 2 
R48: x_6 - e_6 <= 0 
R49: x_7 - e_7 <= 1 
R50: x_8 - e_8 <= 2 
R51: x_9 - e_9 <= 0 

Bounds

Generals
y_0 y_1 y_2 y_3 y_4 y_5 y_6 y_7 y_8 y_9 z_0 z_1 z_2 z_3 z_4 z_5 z_6 z_7 z_8 
z_9 y_0_0 y_0_1 y_0_2 y_0_3 y_0_4 y_0_5 y_0_6 y_0_7 y_0_8 y_0_9 y_1_0 y_1_1 
y_1_2 y_1_3 y_1_4 y_1_5 y_1_6 y_1_7 y_1_8 y_1_9 y_2_0 y_2_1 y_2_2 y_2_3 y_2_4 
y_2_5 y_2_6 y_2_7 y_2_8 y_2_9 y_3_0 y_3_1 y_3_2 y_3_3 y_3_4 y_3_5 y_3_6 y_3_7 
y_3_8 y_3_9 y_4_0 y_4_1 y_4_2 y_4_3 y_4_4 y_4_5 y_4_6 y_4_7 y_4_8 y_4_9 y_5_0 
y_5_1 y_5_2 y_5_3 y_5_4 y_5_5 y_5_6 y_5_7 y_5_8 y_5_9 y_6_0 y_6_1 y_6_2 y_6_3 
y_6_4 y_6_5 y_6_6 y_6_7 y_6_8 y_6_9 y_7_0 y_7_1 y_7_2 y_7_3 y_7_4 y_7_5 y_7_6 
y_7_7 y_7_8 y_7_9 y_8_0 y_8_1 y_8_2 y_8_3 y_8_4 y_8_5 y_8_6 y_8_7 y_8_8 y_8_9 
y_9_0 y_9_1 y_9_2 y_9_3 y_9_4 y_9_5 y_9_6 y_9_7 y_9_8 y_9_9 

Binaries
x_0 x_1 x_2 x_3 x_4 x_5 x_6 x_7 x_8 x_9 e_0 e_1 e_2 e_3 e_4 e_5 e_6 e_7 e_8 
e_9 

End
